nNurses = 114;
nHours = 25;
minHours = 3;
maxHours = 13;
maxConsec = 11;
maxPresence = 19;
demand = [39, 38, 36, 32, 29, 28, 27, 29, 27, 25, 21, 20, 20, 17, 15, 13, 9, 10, 8, 12, 15, 20, 23, 28, 33];
